Electronic minimization
  ENCUT    = 600
  EDIFF    = 1E-4
#  ISTART   = 0
  
  NCORE    = 6

#  IBRION   = 2
#  ISIF     = 3
#  ISPIN    = 2 
#  NSW      = 10
  NELM = 100

LORBIT =11
NEDOS = 2001
EMIN  = -20
EMAX  =  20

ISMEAR = -4
