CdIn2S4                                 
   1.00000000000000     
    11.0428522120729653   -0.0000000000000000   -0.0000000000000000
    -0.0000000000000000   11.0428522120729653   -0.0000000000000000
     0.0000000000000000    0.0000000000000000   11.0428522120729653
   Cd   In   S 
     8    16    32
Direct
  0.0000000000000000 -0.0000000000000000 -0.0000000000000000
  0.0000000000000000  0.5000000000000000  0.5000000000000000
  0.5000000000000000  0.5000000000000000 -0.0000000000000000
  0.5000000000000000 -0.0000000000000000  0.5000000000000000
  0.7500000000000000  0.2500000000000000  0.7500000000000000
  0.2500000000000000  0.2500000000000000  0.2500000000000000
  0.2500000000000000  0.7500000000000000  0.7500000000000000
  0.7500000000000000  0.7500000000000000  0.2500000000000000
  0.6250000000000000  0.6250000000000000  0.6250000000000000
  0.3750000000000000  0.8750000000000000  0.1250000000000000
  0.8750000000000000  0.1250000000000000  0.3750000000000000
  0.1250000000000000  0.3750000000000000  0.8750000000000000
  0.8750000000000000  0.3750000000000000  0.1250000000000000
  0.3750000000000000  0.1250000000000000  0.8750000000000000
  0.1250000000000000  0.8750000000000000  0.3750000000000000
  0.6250000000000000  0.1250000000000000  0.1250000000000000
  0.3750000000000000  0.3750000000000000  0.6250000000000000
  0.8750000000000000  0.6250000000000000  0.8750000000000000
  0.8750000000000000  0.8750000000000000  0.6250000000000000
  0.3750000000000000  0.6250000000000000  0.3750000000000000
  0.1250000000000000  0.6250000000000000  0.1250000000000000
  0.6250000000000000  0.3750000000000000  0.3750000000000000
  0.6250000000000000  0.8750000000000000  0.8750000000000000
  0.1250000000000000  0.1250000000000000  0.6250000000000000
  0.3845246510828619  0.3845246510828619  0.3845246510828619
  0.6154753189171356  0.1154753489171381  0.8845246810828644
  0.1154753489171381  0.8845246810828644  0.6154753189171356
  0.8845246810828644  0.6154753189171356  0.1154753489171381
  0.1345246510828619  0.6345246810828644  0.3654753489171381
  0.8654753189171356  0.8654753189171356  0.8654753189171356
  0.6345246810828644  0.3654753489171381  0.1345246510828619
  0.3654753489171381  0.1345246510828619  0.6345246810828644
  0.6345246810828644  0.1345246510828619  0.3654753489171381
  0.1345246510828619  0.3654753489171381  0.6345246810828644
  0.3654753489171381  0.6345246810828644  0.1345246510828619
  0.1154753489171381  0.6154753189171356  0.8845246810828644
  0.6154753189171356  0.8845246810828644  0.1154753489171381
  0.8845246810828644  0.1154753489171381  0.6154753189171356
  0.3845246510828619  0.8845246810828644  0.8845246810828644
  0.6154753189171356  0.6154753189171356  0.3845246510828619
  0.1154753489171381  0.3845246510828619  0.1154753489171381
  0.1345246510828619  0.1345246510828619  0.8654753189171356
  0.8654753189171356  0.3654753489171381  0.3654753489171381
  0.6345246810828644  0.8654753189171356  0.6345246810828644
  0.6345246810828644  0.6345246810828644  0.8654753189171356
  0.1345246510828619  0.8654753189171356  0.1345246510828619
  0.1154753489171381  0.1154753489171381  0.3845246510828619
  0.6154753189171356  0.3845246510828619  0.6154753189171356
  0.8845246810828644  0.3845246510828619  0.8845246810828644
  0.3845246510828619  0.6154753189171356  0.6154753189171356
  0.3654753489171381  0.8654753189171356  0.3654753489171381
  0.8654753189171356  0.1345246510828619  0.1345246510828619
  0.8654753189171356  0.6345246810828644  0.6345246810828644
  0.3845246510828619  0.1154753489171381  0.1154753489171381
  0.8845246810828644  0.8845246810828644  0.3845246510828619
  0.3654753489171381  0.3654753489171381  0.8654753189171356
 
  0.00000000E+00  0.00000000E+00  0.00000000E+00
  0.00000000E+00  0.00000000E+00  0.00000000E+00
  0.00000000E+00  0.00000000E+00  0.00000000E+00
  0.00000000E+00  0.00000000E+00  0.00000000E+00
  0.00000000E+00  0.00000000E+00  0.00000000E+00
  0.00000000E+00  0.00000000E+00  0.00000000E+00
  0.00000000E+00  0.00000000E+00  0.00000000E+00
  0.00000000E+00  0.00000000E+00  0.00000000E+00
  0.00000000E+00  0.00000000E+00  0.00000000E+00
  0.00000000E+00  0.00000000E+00  0.00000000E+00
  0.00000000E+00  0.00000000E+00  0.00000000E+00
  0.00000000E+00  0.00000000E+00  0.00000000E+00
  0.00000000E+00  0.00000000E+00  0.00000000E+00
  0.00000000E+00  0.00000000E+00  0.00000000E+00
  0.00000000E+00  0.00000000E+00  0.00000000E+00
  0.00000000E+00  0.00000000E+00  0.00000000E+00
  0.00000000E+00  0.00000000E+00  0.00000000E+00
  0.00000000E+00  0.00000000E+00  0.00000000E+00
  0.00000000E+00  0.00000000E+00  0.00000000E+00
  0.00000000E+00  0.00000000E+00  0.00000000E+00
  0.00000000E+00  0.00000000E+00  0.00000000E+00
  0.00000000E+00  0.00000000E+00  0.00000000E+00
  0.00000000E+00  0.00000000E+00  0.00000000E+00
  0.00000000E+00  0.00000000E+00  0.00000000E+00
  0.00000000E+00  0.00000000E+00  0.00000000E+00
  0.00000000E+00  0.00000000E+00  0.00000000E+00
  0.00000000E+00  0.00000000E+00  0.00000000E+00
  0.00000000E+00  0.00000000E+00  0.00000000E+00
  0.00000000E+00  0.00000000E+00  0.00000000E+00
  0.00000000E+00  0.00000000E+00  0.00000000E+00
  0.00000000E+00  0.00000000E+00  0.00000000E+00
  0.00000000E+00  0.00000000E+00  0.00000000E+00
  0.00000000E+00  0.00000000E+00  0.00000000E+00
  0.00000000E+00  0.00000000E+00  0.00000000E+00
  0.00000000E+00  0.00000000E+00  0.00000000E+00
  0.00000000E+00  0.00000000E+00  0.00000000E+00
  0.00000000E+00  0.00000000E+00  0.00000000E+00
  0.00000000E+00  0.00000000E+00  0.00000000E+00
  0.00000000E+00  0.00000000E+00  0.00000000E+00
  0.00000000E+00  0.00000000E+00  0.00000000E+00
  0.00000000E+00  0.00000000E+00  0.00000000E+00
  0.00000000E+00  0.00000000E+00  0.00000000E+00
  0.00000000E+00  0.00000000E+00  0.00000000E+00
  0.00000000E+00  0.00000000E+00  0.00000000E+00
  0.00000000E+00  0.00000000E+00  0.00000000E+00
  0.00000000E+00  0.00000000E+00  0.00000000E+00
  0.00000000E+00  0.00000000E+00  0.00000000E+00
  0.00000000E+00  0.00000000E+00  0.00000000E+00
  0.00000000E+00  0.00000000E+00  0.00000000E+00
  0.00000000E+00  0.00000000E+00  0.00000000E+00
  0.00000000E+00  0.00000000E+00  0.00000000E+00
  0.00000000E+00  0.00000000E+00  0.00000000E+00
  0.00000000E+00  0.00000000E+00  0.00000000E+00
  0.00000000E+00  0.00000000E+00  0.00000000E+00
  0.00000000E+00  0.00000000E+00  0.00000000E+00
  0.00000000E+00  0.00000000E+00  0.00000000E+00
