CdIn2S4
1.0
    11.022353692  0.000000000  0.000000000     0.090724724  0.000000000  0.000000000
     0.000000000 11.022353692  0.000000000     0.000000000  0.090724724  0.000000000
     0.000000000  0.000000000 11.022353692     0.000000000  0.000000000  0.090724724
Cd In S
8 16 32
direct
   0.00000000  0.00000000  0.00000000
   0.00000000  0.50000000  0.50000000
   0.50000000  0.50000000  0.00000000
   0.50000000  0.00000000  0.50000000
   0.75000000  0.25000000  0.75000000
   0.25000000  0.25000000  0.25000000
   0.25000000  0.75000000  0.75000000
   0.75000000  0.75000000  0.25000000
   0.62500000  0.62500000  0.62500000
   0.37500000  0.87500000  0.12500000
   0.87500000  0.12500000  0.37500000
   0.12500000  0.37500000  0.87500000
   0.87500000  0.37500000  0.12500000
   0.37500000  0.12500000  0.87500000
   0.12500000  0.87500000  0.37500000
   0.62500000  0.12500000  0.12500000
   0.37500000  0.37500000  0.62500000
   0.87500000  0.62500000  0.87500000
   0.87500000  0.87500000  0.62500000
   0.37500000  0.62500000  0.37500000
   0.12500000  0.62500000  0.12500000
   0.62500000  0.37500000  0.37500000
   0.62500000  0.87500000  0.87500000
   0.12500000  0.12500000  0.62500000
   0.38484764  0.38484764  0.38484764
   0.61515233  0.11515236  0.88484767
   0.11515236  0.88484767  0.61515233
   0.88484767  0.61515233  0.11515236
   0.13484764  0.63484767  0.36515236
   0.86515233  0.86515233  0.86515233
   0.63484767  0.36515236  0.13484764
   0.36515236  0.13484764  0.63484767
   0.63484767  0.13484764  0.36515236
   0.13484764  0.36515236  0.63484767
   0.36515236  0.63484767  0.13484764
   0.11515236  0.61515233  0.88484767
   0.61515233  0.88484767  0.11515236
   0.88484767  0.11515236  0.61515233
   0.38484764  0.88484767  0.88484767
   0.61515233  0.61515233  0.38484764
   0.11515236  0.38484764  0.11515236
   0.13484764  0.13484764  0.86515233
   0.86515233  0.36515236  0.36515236
   0.63484767  0.86515233  0.63484767
   0.63484767  0.63484767  0.86515233
   0.13484764  0.86515233  0.13484764
   0.11515236  0.11515236  0.38484764
   0.61515233  0.38484764  0.61515233
   0.88484767  0.38484764  0.88484767
   0.38484764  0.61515233  0.61515233
   0.36515236  0.86515233  0.36515236
   0.86515233  0.13484764  0.13484764
   0.86515233  0.63484767  0.63484767
   0.38484764  0.11515236  0.11515236
   0.88484767  0.88484767  0.38484764
   0.36515236  0.36515236  0.86515233
 
