Electronic minimization
  ENCUT    = 600
  EDIFF    = 1E-4
#  ISTART   = 0
  
  NCORE    = 6

#  IBRION   = 2
#  ISIF     = 2
#  ISPIN    = 2 
#  NSW      = 20
  NELM = 100
 NELECT = 328

LORBIT =11

NEDOS = 2001
EMIN  = -20
EMAX  =  20

ISMEAR = -4
