CdIn2S4                                 
   1.00000000000000     
    11.0428522120729653    0.0000000000000000    0.0000000000000000
     0.0000000000000000   11.0428522120729653    0.0000000000000000
     0.0000000000000000    0.0000000000000000   11.0428522120729653
   Cd   In   S 
     8    16    31
Direct
  0.9969127620884752  0.9969127620884752  0.9969127620884752
  0.0067134416113380  0.5052993165549823  0.5052993165549823
  0.5052993165549823  0.5052993165549823  0.0067134416113380
  0.5052993165549823  0.0067134416113380  0.5052993165549823
  0.7482518122389102  0.2473293078186440  0.7482518122389102
  0.2096077961155890  0.2096077961155890  0.2096077961155890
  0.2473293078186440  0.7482518122389102  0.7482518122389102
  0.7482518122389102  0.7482518122389102  0.2473293078186440
  0.6249431142681189  0.6249431142681189  0.6249431142681189
  0.3750203119658099  0.8744402656489939  0.1206285913263734
  0.8744402656489939  0.1206285913263734  0.3750203119658099
  0.1206285913263734  0.3750203119658099  0.8744402656489939
  0.8744402656489939  0.3750203119658099  0.1206285913263734
  0.3750203119658099  0.1206285913263734  0.8744402656489939
  0.1206285913263734  0.8744402656489939  0.3750203119658099
  0.6303680104796646  0.1242123031254993  0.1242123031254993
  0.3775258673362591  0.3775258673362591  0.6568118193962067
  0.8743928553099007  0.6247954140140095  0.8743928553099007
  0.8743928553099007  0.8743928553099007  0.6247954140140095
  0.3775258673362591  0.6568118193962067  0.3775258673362591
  0.1242123031254993  0.6303680104796646  0.1242123031254993
  0.6568118193962067  0.3775258673362591  0.3775258673362591
  0.6247954140140095  0.8743928553099007  0.8743928553099007
  0.1242123031254993  0.1242123031254993  0.6303680104796646
  0.6146439836890542  0.1151915674302047  0.8848294614801524
  0.1151915674302047  0.8848294614801524  0.6146439836890542
  0.8848294614801524  0.6146439836890542  0.1151915674302047
  0.1409788350161245  0.6341757214934139  0.3653152958140493
  0.8641136706880581  0.8641136706880581  0.8641136706880581
  0.6341757214934139  0.3653152958140493  0.1409788350161245
  0.3653152958140493  0.1409788350161245  0.6341757214934139
  0.6341757214934139  0.1409788350161245  0.3653152958140493
  0.1409788350161245  0.3653152958140493  0.6341757214934139
  0.3653152958140493  0.6341757214934139  0.1409788350161245
  0.1151915674302047  0.6146439836890542  0.8848294614801524
  0.6146439836890542  0.8848294614801524  0.1151915674302047
  0.8848294614801524  0.1151915674302047  0.6146439836890542
  0.3842457475405544  0.8812296096816915  0.8812296096816915
  0.6096704265929828  0.6096704265929828  0.3827185975547304
  0.1129809105112266  0.3871050323364872  0.1129809105112266
  0.1347892448647036  0.1347892448647036  0.8680831893612920
  0.8837979127970333  0.3646280290656490  0.3646280290656490
  0.6336678126054094  0.8641850893441541  0.6336678126054094
  0.6336678126054094  0.6336678126054094  0.8641850893441541
  0.1347892448647036  0.8680831893612920  0.1347892448647036
  0.1129809105112266  0.1129809105112266  0.3871050323364872
  0.6096704265929828  0.3827185975547304  0.6096704265929828
  0.8812296096816915  0.3842457475405544  0.8812296096816915
  0.3827185975547304  0.6096704265929828  0.6096704265929828
  0.3646280290656490  0.8837979127970333  0.3646280290656490
  0.8680831893612920  0.1347892448647036  0.1347892448647036
  0.8641850893441541  0.6336678126054094  0.6336678126054094
  0.3871050323364872  0.1129809105112266  0.1129809105112266
  0.8812296096816915  0.8812296096816915  0.3842457475405544
  0.3646280290656490  0.3646280290656490  0.8837979127970333
 
  0.00000000E+00  0.00000000E+00  0.00000000E+00
  0.00000000E+00  0.00000000E+00  0.00000000E+00
  0.00000000E+00  0.00000000E+00  0.00000000E+00
  0.00000000E+00  0.00000000E+00  0.00000000E+00
  0.00000000E+00  0.00000000E+00  0.00000000E+00
  0.00000000E+00  0.00000000E+00  0.00000000E+00
  0.00000000E+00  0.00000000E+00  0.00000000E+00
  0.00000000E+00  0.00000000E+00  0.00000000E+00
  0.00000000E+00  0.00000000E+00  0.00000000E+00
  0.00000000E+00  0.00000000E+00  0.00000000E+00
  0.00000000E+00  0.00000000E+00  0.00000000E+00
  0.00000000E+00  0.00000000E+00  0.00000000E+00
  0.00000000E+00  0.00000000E+00  0.00000000E+00
  0.00000000E+00  0.00000000E+00  0.00000000E+00
  0.00000000E+00  0.00000000E+00  0.00000000E+00
  0.00000000E+00  0.00000000E+00  0.00000000E+00
  0.00000000E+00  0.00000000E+00  0.00000000E+00
  0.00000000E+00  0.00000000E+00  0.00000000E+00
  0.00000000E+00  0.00000000E+00  0.00000000E+00
  0.00000000E+00  0.00000000E+00  0.00000000E+00
  0.00000000E+00  0.00000000E+00  0.00000000E+00
  0.00000000E+00  0.00000000E+00  0.00000000E+00
  0.00000000E+00  0.00000000E+00  0.00000000E+00
  0.00000000E+00  0.00000000E+00  0.00000000E+00
  0.00000000E+00  0.00000000E+00  0.00000000E+00
  0.00000000E+00  0.00000000E+00  0.00000000E+00
  0.00000000E+00  0.00000000E+00  0.00000000E+00
  0.00000000E+00  0.00000000E+00  0.00000000E+00
  0.00000000E+00  0.00000000E+00  0.00000000E+00
  0.00000000E+00  0.00000000E+00  0.00000000E+00
  0.00000000E+00  0.00000000E+00  0.00000000E+00
  0.00000000E+00  0.00000000E+00  0.00000000E+00
  0.00000000E+00  0.00000000E+00  0.00000000E+00
  0.00000000E+00  0.00000000E+00  0.00000000E+00
  0.00000000E+00  0.00000000E+00  0.00000000E+00
  0.00000000E+00  0.00000000E+00  0.00000000E+00
  0.00000000E+00  0.00000000E+00  0.00000000E+00
  0.00000000E+00  0.00000000E+00  0.00000000E+00
  0.00000000E+00  0.00000000E+00  0.00000000E+00
  0.00000000E+00  0.00000000E+00  0.00000000E+00
  0.00000000E+00  0.00000000E+00  0.00000000E+00
  0.00000000E+00  0.00000000E+00  0.00000000E+00
  0.00000000E+00  0.00000000E+00  0.00000000E+00
  0.00000000E+00  0.00000000E+00  0.00000000E+00
  0.00000000E+00  0.00000000E+00  0.00000000E+00
  0.00000000E+00  0.00000000E+00  0.00000000E+00
  0.00000000E+00  0.00000000E+00  0.00000000E+00
  0.00000000E+00  0.00000000E+00  0.00000000E+00
  0.00000000E+00  0.00000000E+00  0.00000000E+00
  0.00000000E+00  0.00000000E+00  0.00000000E+00
  0.00000000E+00  0.00000000E+00  0.00000000E+00
  0.00000000E+00  0.00000000E+00  0.00000000E+00
  0.00000000E+00  0.00000000E+00  0.00000000E+00
  0.00000000E+00  0.00000000E+00  0.00000000E+00
  0.00000000E+00  0.00000000E+00  0.00000000E+00
