Electronic minimization
  ENCUT    = 600
  EDIFF    = 1E-6
  ISTART   = 0
  GGA  = PS
#  NCORE    = 6

#  IBRION   = 2
#  ISIF     = 3
#  ISPIN    = 2 
#  NSW      = 1
 NELM = 1 
NELECT =   0


ISMEAR = -4
