CdIn2S4
1.0
    11.022353692  0.000000000  0.000000000     
     0.000000000 11.022353692  0.000000000     
     0.000000000  0.000000000 11.022353692     
H
1
direct
0.5 0.5 0.5 
