CdIn2S4                                 
   1.00000000000000     
    11.0428522120729653    0.0000000000000000    0.0000000000000000
     0.0000000000000000   11.0428522120729653    0.0000000000000000
     0.0000000000000000    0.0000000000000000   11.0428522120729653
   Cd   In   S 
     8    16    31
Direct
  0.9995390447200224  0.9995390447200224  0.9995390447200224
  0.0038459502667601  0.5009123298217496  0.5009123298217496
  0.5009123298217496  0.5009123298217496  0.0038459502667601
  0.5009123298217496  0.0038459502667601  0.5009123298217496
  0.7474281977732092  0.2470636038737621  0.7474281977732092
  0.3140485211293837  0.3140485211293837  0.3140485211293837
  0.2470636038737621  0.7474281977732092  0.7474281977732092
  0.7474281977732092  0.7474281977732092  0.2470636038737621
  0.6219498956281836  0.6219498956281836  0.6219498956281836
  0.3723850165947338  0.8816518754172540  0.1229325134963995
  0.8816518754172540  0.1229325134963995  0.3723850165947338
  0.1229325134963995  0.3723850165947338  0.8816518754172540
  0.8816518754172540  0.3723850165947338  0.1229325134963995
  0.3723850165947338  0.1229325134963995  0.8816518754172540
  0.1229325134963995  0.8816518754172540  0.3723850165947338
  0.6193503162526502  0.1225252359360503  0.1225252359360503
  0.3715374647429424  0.3715374647429424  0.6364464597146844
  0.8728541156715431  0.6232886098395271  0.8728541156715431
  0.8728541156715431  0.8728541156715431  0.6232886098395271
  0.3715374647429424  0.6364464597146844  0.3715374647429424
  0.1225252359360503  0.6193503162526502  0.1225252359360503
  0.6364464597146844  0.3715374647429424  0.3715374647429424
  0.6232886098395271  0.8728541156715431  0.8728541156715431
  0.1225252359360503  0.1225252359360503  0.6193503162526502
  0.6135602705528950  0.1133386967697390  0.8814131139432896
  0.1133386967697390  0.8814131139432896  0.6135602705528950
  0.8814131139432896  0.6135602705528950  0.1133386967697390
  0.1345346229937105  0.6357418964475997  0.3642246319169755
  0.8635789843885815  0.8635789843885815  0.8635789843885815
  0.6357418964475997  0.3642246319169755  0.1345346229937105
  0.3642246319169755  0.1345346229937105  0.6357418964475997
  0.6357418964475997  0.1345346229937105  0.3642246319169755
  0.1345346229937105  0.3642246319169755  0.6357418964475997
  0.3642246319169755  0.6357418964475997  0.1345346229937105
  0.1133386967697390  0.6135602705528950  0.8814131139432896
  0.6135602705528950  0.8814131139432896  0.1133386967697390
  0.8814131139432896  0.1133386967697390  0.6135602705528950
  0.3827865669686498  0.8814996851761921  0.8814996851761921
  0.6081225533258705  0.6081225533258705  0.3803212696954282
  0.1191528173861962  0.3825763555973766  0.1191528173861962
  0.1327906399569285  0.1327906399569285  0.8621646207856193
  0.8704056048306149  0.3651139891676835  0.3651139891676835
  0.6314834610449183  0.8617032889541539  0.6314834610449183
  0.6314834610449183  0.6314834610449183  0.8617032889541539
  0.1327906399569285  0.8621646207856193  0.1327906399569285
  0.1191528173861962  0.1191528173861962  0.3825763555973766
  0.6081225533258705  0.3803212696954282  0.6081225533258705
  0.8814996851761921  0.3827865669686498  0.8814996851761921
  0.3803212696954282  0.6081225533258705  0.6081225533258705
  0.3651139891676835  0.8704056048306149  0.3651139891676835
  0.8621646207856193  0.1327906399569285  0.1327906399569285
  0.8617032889541539  0.6314834610449183  0.6314834610449183
  0.3825763555973766  0.1191528173861962  0.1191528173861962
  0.8814996851761921  0.8814996851761921  0.3827865669686498
  0.3651139891676835  0.3651139891676835  0.8704056048306149
 
  0.00000000E+00  0.00000000E+00  0.00000000E+00
  0.00000000E+00  0.00000000E+00  0.00000000E+00
  0.00000000E+00  0.00000000E+00  0.00000000E+00
  0.00000000E+00  0.00000000E+00  0.00000000E+00
  0.00000000E+00  0.00000000E+00  0.00000000E+00
  0.00000000E+00  0.00000000E+00  0.00000000E+00
  0.00000000E+00  0.00000000E+00  0.00000000E+00
  0.00000000E+00  0.00000000E+00  0.00000000E+00
  0.00000000E+00  0.00000000E+00  0.00000000E+00
  0.00000000E+00  0.00000000E+00  0.00000000E+00
  0.00000000E+00  0.00000000E+00  0.00000000E+00
  0.00000000E+00  0.00000000E+00  0.00000000E+00
  0.00000000E+00  0.00000000E+00  0.00000000E+00
  0.00000000E+00  0.00000000E+00  0.00000000E+00
  0.00000000E+00  0.00000000E+00  0.00000000E+00
  0.00000000E+00  0.00000000E+00  0.00000000E+00
  0.00000000E+00  0.00000000E+00  0.00000000E+00
  0.00000000E+00  0.00000000E+00  0.00000000E+00
  0.00000000E+00  0.00000000E+00  0.00000000E+00
  0.00000000E+00  0.00000000E+00  0.00000000E+00
  0.00000000E+00  0.00000000E+00  0.00000000E+00
  0.00000000E+00  0.00000000E+00  0.00000000E+00
  0.00000000E+00  0.00000000E+00  0.00000000E+00
  0.00000000E+00  0.00000000E+00  0.00000000E+00
  0.00000000E+00  0.00000000E+00  0.00000000E+00
  0.00000000E+00  0.00000000E+00  0.00000000E+00
  0.00000000E+00  0.00000000E+00  0.00000000E+00
  0.00000000E+00  0.00000000E+00  0.00000000E+00
  0.00000000E+00  0.00000000E+00  0.00000000E+00
  0.00000000E+00  0.00000000E+00  0.00000000E+00
  0.00000000E+00  0.00000000E+00  0.00000000E+00
  0.00000000E+00  0.00000000E+00  0.00000000E+00
  0.00000000E+00  0.00000000E+00  0.00000000E+00
  0.00000000E+00  0.00000000E+00  0.00000000E+00
  0.00000000E+00  0.00000000E+00  0.00000000E+00
  0.00000000E+00  0.00000000E+00  0.00000000E+00
  0.00000000E+00  0.00000000E+00  0.00000000E+00
  0.00000000E+00  0.00000000E+00  0.00000000E+00
  0.00000000E+00  0.00000000E+00  0.00000000E+00
  0.00000000E+00  0.00000000E+00  0.00000000E+00
  0.00000000E+00  0.00000000E+00  0.00000000E+00
  0.00000000E+00  0.00000000E+00  0.00000000E+00
  0.00000000E+00  0.00000000E+00  0.00000000E+00
  0.00000000E+00  0.00000000E+00  0.00000000E+00
  0.00000000E+00  0.00000000E+00  0.00000000E+00
  0.00000000E+00  0.00000000E+00  0.00000000E+00
  0.00000000E+00  0.00000000E+00  0.00000000E+00
  0.00000000E+00  0.00000000E+00  0.00000000E+00
  0.00000000E+00  0.00000000E+00  0.00000000E+00
  0.00000000E+00  0.00000000E+00  0.00000000E+00
  0.00000000E+00  0.00000000E+00  0.00000000E+00
  0.00000000E+00  0.00000000E+00  0.00000000E+00
  0.00000000E+00  0.00000000E+00  0.00000000E+00
  0.00000000E+00  0.00000000E+00  0.00000000E+00
  0.00000000E+00  0.00000000E+00  0.00000000E+00
