CdIn2S4                                 
   1.00000000000000     
    11.0428522120729653    0.0000000000000000    0.0000000000000000
     0.0000000000000000   11.0428522120729653    0.0000000000000000
     0.0000000000000000    0.0000000000000000   11.0428522120729653
   Cd   In   S 
     8    16    31
Direct
  0.9968212632764812  0.9968212632764812  0.9968212632764812
  0.0065633490617837  0.5052984565324822  0.5052984565324822
  0.5052984565324822  0.5052984565324822  0.0065633490617837
  0.5052984565324822  0.0065633490617837  0.5052984565324822
  0.7480385943977887  0.2475991492227978  0.7480385943977887
  0.2063472775628837  0.2063472775628837  0.2063472775628837
  0.2475991492227978  0.7480385943977887  0.7480385943977887
  0.7480385943977887  0.7480385943977887  0.2475991492227978
  0.6248810570207410  0.6248810570207410  0.6248810570207410
  0.3754903126186516  0.8747312255572903  0.1208056310359810
  0.8747312255572903  0.1208056310359810  0.3754903126186516
  0.1208056310359810  0.3754903126186516  0.8747312255572903
  0.8747312255572903  0.3754903126186516  0.1208056310359810
  0.3754903126186516  0.1208056310359810  0.8747312255572903
  0.1208056310359810  0.8747312255572903  0.3754903126186516
  0.6309843663296292  0.1241996870094766  0.1241996870094766
  0.3773922581669442  0.3773922581669442  0.6554400189332370
  0.8743469734852574  0.6246304963721767  0.8743469734852574
  0.8743469734852574  0.8743469734852574  0.6246304963721767
  0.3773922581669442  0.6554400189332370  0.3773922581669442
  0.1241996870094766  0.6309843663296292  0.1241996870094766
  0.6554400189332370  0.3773922581669442  0.3773922581669442
  0.6246304963721767  0.8743469734852574  0.8743469734852574
  0.1241996870094766  0.1241996870094766  0.6309843663296292
  0.6151764967658079  0.1151133657001429  0.8843980204535012
  0.1151133657001429  0.8843980204535012  0.6151764967658079
  0.8843980204535012  0.6151764967658079  0.1151133657001429
  0.1402961636458317  0.6344031445526120  0.3656741087406173
  0.8640761525926969  0.8640761525926969  0.8640761525926969
  0.6344031445526120  0.3656741087406173  0.1402961636458317
  0.3656741087406173  0.1402961636458317  0.6344031445526120
  0.6344031445526120  0.1402961636458317  0.3656741087406173
  0.1402961636458317  0.3656741087406173  0.6344031445526120
  0.3656741087406173  0.6344031445526120  0.1402961636458317
  0.1151133657001429  0.6151764967658079  0.8843980204535012
  0.6151764967658079  0.8843980204535012  0.1151133657001429
  0.8843980204535012  0.1151133657001429  0.6151764967658079
  0.3841004642883767  0.8813551659691965  0.8813551659691965
  0.6104926523933062  0.6104926523933062  0.3826258961172720
  0.1133321648147129  0.3875798373136468  0.1133321648147129
  0.1348913585565501  0.1348913585565501  0.8689842877084381
  0.8831901510216341  0.3645844253190735  0.3645844253190735
  0.6336479109684495  0.8643153487279740  0.6336479109684495
  0.6336479109684495  0.6336479109684495  0.8643153487279740
  0.1348913585565501  0.8689842877084381  0.1348913585565501
  0.1133321648147129  0.1133321648147129  0.3875798373136468
  0.6104926523933062  0.3826258961172720  0.6104926523933062
  0.8813551659691965  0.3841004642883767  0.8813551659691965
  0.3826258961172720  0.6104926523933062  0.6104926523933062
  0.3645844253190735  0.8831901510216341  0.3645844253190735
  0.8689842877084381  0.1348913585565501  0.1348913585565501
  0.8643153487279740  0.6336479109684495  0.6336479109684495
  0.3875798373136468  0.1133321648147129  0.1133321648147129
  0.8813551659691965  0.8813551659691965  0.3841004642883767
  0.3645844253190735  0.3645844253190735  0.8831901510216341
 
  0.00000000E+00  0.00000000E+00  0.00000000E+00
  0.00000000E+00  0.00000000E+00  0.00000000E+00
  0.00000000E+00  0.00000000E+00  0.00000000E+00
  0.00000000E+00  0.00000000E+00  0.00000000E+00
  0.00000000E+00  0.00000000E+00  0.00000000E+00
  0.00000000E+00  0.00000000E+00  0.00000000E+00
  0.00000000E+00  0.00000000E+00  0.00000000E+00
  0.00000000E+00  0.00000000E+00  0.00000000E+00
  0.00000000E+00  0.00000000E+00  0.00000000E+00
  0.00000000E+00  0.00000000E+00  0.00000000E+00
  0.00000000E+00  0.00000000E+00  0.00000000E+00
  0.00000000E+00  0.00000000E+00  0.00000000E+00
  0.00000000E+00  0.00000000E+00  0.00000000E+00
  0.00000000E+00  0.00000000E+00  0.00000000E+00
  0.00000000E+00  0.00000000E+00  0.00000000E+00
  0.00000000E+00  0.00000000E+00  0.00000000E+00
  0.00000000E+00  0.00000000E+00  0.00000000E+00
  0.00000000E+00  0.00000000E+00  0.00000000E+00
  0.00000000E+00  0.00000000E+00  0.00000000E+00
  0.00000000E+00  0.00000000E+00  0.00000000E+00
  0.00000000E+00  0.00000000E+00  0.00000000E+00
  0.00000000E+00  0.00000000E+00  0.00000000E+00
  0.00000000E+00  0.00000000E+00  0.00000000E+00
  0.00000000E+00  0.00000000E+00  0.00000000E+00
  0.00000000E+00  0.00000000E+00  0.00000000E+00
  0.00000000E+00  0.00000000E+00  0.00000000E+00
  0.00000000E+00  0.00000000E+00  0.00000000E+00
  0.00000000E+00  0.00000000E+00  0.00000000E+00
  0.00000000E+00  0.00000000E+00  0.00000000E+00
  0.00000000E+00  0.00000000E+00  0.00000000E+00
  0.00000000E+00  0.00000000E+00  0.00000000E+00
  0.00000000E+00  0.00000000E+00  0.00000000E+00
  0.00000000E+00  0.00000000E+00  0.00000000E+00
  0.00000000E+00  0.00000000E+00  0.00000000E+00
  0.00000000E+00  0.00000000E+00  0.00000000E+00
  0.00000000E+00  0.00000000E+00  0.00000000E+00
  0.00000000E+00  0.00000000E+00  0.00000000E+00
  0.00000000E+00  0.00000000E+00  0.00000000E+00
  0.00000000E+00  0.00000000E+00  0.00000000E+00
  0.00000000E+00  0.00000000E+00  0.00000000E+00
  0.00000000E+00  0.00000000E+00  0.00000000E+00
  0.00000000E+00  0.00000000E+00  0.00000000E+00
  0.00000000E+00  0.00000000E+00  0.00000000E+00
  0.00000000E+00  0.00000000E+00  0.00000000E+00
  0.00000000E+00  0.00000000E+00  0.00000000E+00
  0.00000000E+00  0.00000000E+00  0.00000000E+00
  0.00000000E+00  0.00000000E+00  0.00000000E+00
  0.00000000E+00  0.00000000E+00  0.00000000E+00
  0.00000000E+00  0.00000000E+00  0.00000000E+00
  0.00000000E+00  0.00000000E+00  0.00000000E+00
  0.00000000E+00  0.00000000E+00  0.00000000E+00
  0.00000000E+00  0.00000000E+00  0.00000000E+00
  0.00000000E+00  0.00000000E+00  0.00000000E+00
  0.00000000E+00  0.00000000E+00  0.00000000E+00
  0.00000000E+00  0.00000000E+00  0.00000000E+00
